;; translated from ./ctigar/nest-if7.c.vmt
;; original benchmark available at: https://es-static.fbk.eu/people/griggio/ic3ia/index.html
;; author: Alberto Griggio <griggio@fbk.eu>
(set-logic HORN)
(declare-fun state (Bool Bool Bool Bool Bool Int Int Int Int) Bool)
(assert (forall ((|.s.2| Bool) (|.s.0| Bool) (|.s.1| Bool) (|.s.0.next| Bool) (|.s.1.next| Bool) (|.s.2.next| Bool) (|.s.3.next| Bool) (|.s.4.next| Bool) (|main.i.next| Int) (|main.i| Int) (|main.j.next| Int) (|main.j| Int) (|main.k.next| Int) (|main.k| Int) (|main.n.next| Int) (|main.n| Int) (|.inputVar.0| Int) (|.s.4| Bool) (|.s.3| Bool)) (=> (let ((.def_20 (not .s.4)))
(let ((.def_17 (not .s.3)))
(let ((.def_14 (not .s.2)))
(let ((.def_10 (not .s.1)))
(let ((.def_12 (and .def_10 .s.0)))
(let ((.def_15 (and .def_12 .def_14)))
(let ((.def_18 (and .def_15 .def_17)))
(let ((.def_21 (and .def_18 .def_20)))
.def_21)))))))) (state |.s.1| |.s.0| |.s.2| |.s.3| |.s.4| |main.n| |main.k| |main.j| |main.i|))))
(assert (forall ((|.s.2| Bool) (|.s.0| Bool) (|.s.1| Bool) (|.s.0.next| Bool) (|.s.1.next| Bool) (|.s.2.next| Bool) (|.s.3.next| Bool) (|.s.4.next| Bool) (|main.i.next| Int) (|main.i| Int) (|main.j.next| Int) (|main.j| Int) (|main.k.next| Int) (|main.k| Int) (|main.n.next| Int) (|main.n| Int) (|.inputVar.0| Int) (|.s.4| Bool) (|.s.3| Bool)) (=> (and (state |.s.1| |.s.0| |.s.2| |.s.3| |.s.4| |main.n| |main.k| |main.j| |main.i|) (let ((.def_57 (not .s.0)))
(let ((.def_10 (not .s.1)))
(let ((.def_58 (and .def_10 .def_57)))
(let ((.def_14 (not .s.2)))
(let ((.def_112 (and .def_14 .def_58)))
(let ((.def_17 (not .s.3)))
(let ((.def_113 (and .def_17 .def_112)))
(let ((.def_20 (not .s.4)))
(let ((.def_329 (and .def_20 .def_113)))
(let ((.def_330 (not .def_329)))
(let ((.def_47 (not .s.0.next)))
(let ((.def_45 (not .s.1.next)))
(let ((.def_48 (and .def_45 .def_47)))
(let ((.def_43 (not .s.2.next)))
(let ((.def_49 (and .def_43 .def_48)))
(let ((.def_41 (not .s.3.next)))
(let ((.def_50 (and .def_41 .def_49)))
(let ((.def_39 (not .s.4.next)))
(let ((.def_51 (and .def_39 .def_50)))
(let ((.def_37 (= main.i main.i.next)))
(let ((.def_52 (and .def_37 .def_51)))
(let ((.def_34 (= main.j main.j.next)))
(let ((.def_53 (and .def_34 .def_52)))
(let ((.def_31 (= main.k main.k.next)))
(let ((.def_54 (and .def_31 .def_53)))
(let ((.def_28 (= main.n main.n.next)))
(let ((.def_55 (and .def_28 .def_54)))
(let ((.def_331 (or .def_55 .def_330)))
(let ((.def_323 (= main.i.next 0)))
(let ((.def_63 (and .s.1.next .def_47)))
(let ((.def_64 (and .def_43 .def_63)))
(let ((.def_65 (and .def_41 .def_64)))
(let ((.def_66 (and .def_39 .def_65)))
(let ((.def_324 (and .def_66 .def_323)))
(let ((.def_325 (and .def_34 .def_324)))
(let ((.def_326 (and .def_31 .def_325)))
(let ((.def_327 (and .def_28 .def_326)))
(let ((.def_12 (and .def_10 .s.0)))
(let ((.def_15 (and .def_12 .def_14)))
(let ((.def_18 (and .def_15 .def_17)))
(let ((.def_21 (and .def_18 .def_20)))
(let ((.def_322 (not .def_21)))
(let ((.def_328 (or .def_322 .def_327)))
(let ((.def_332 (and .def_328 .def_331)))
(let ((.def_163 (and .def_45 .s.0.next)))
(let ((.def_164 (and .s.2.next .def_163)))
(let ((.def_279 (and .def_41 .def_164)))
(let ((.def_316 (and .s.4.next .def_279)))
(let ((.def_317 (and .def_37 .def_316)))
(let ((.def_318 (and .def_34 .def_317)))
(let ((.def_319 (and .def_31 .def_318)))
(let ((.def_320 (and .def_28 .def_319)))
(let ((.def_304 (<= main.n main.i)))
(let ((.def_90 (and .s.1 .def_57)))
(let ((.def_91 (and .def_14 .def_90)))
(let ((.def_92 (and .def_17 .def_91)))
(let ((.def_303 (and .def_20 .def_92)))
(let ((.def_314 (and .def_303 .def_304)))
(let ((.def_315 (not .def_314)))
(let ((.def_321 (or .def_315 .def_320)))
(let ((.def_333 (and .def_321 .def_332)))
(let ((.def_126 (and .s.1.next .s.0.next)))
(let ((.def_191 (and .def_43 .def_126)))
(let ((.def_288 (and .def_41 .def_191)))
(let ((.def_308 (and .def_39 .def_288)))
(let ((.def_309 (and .def_37 .def_308)))
(let ((.def_310 (and .def_34 .def_309)))
(let ((.def_311 (and .def_31 .def_310)))
(let ((.def_312 (and .def_28 .def_311)))
(let ((.def_305 (not .def_304)))
(let ((.def_306 (and .def_303 .def_305)))
(let ((.def_307 (not .def_306)))
(let ((.def_313 (or .def_307 .def_312)))
(let ((.def_334 (and .def_313 .def_333)))
(let ((.def_297 (= main.j.next main.i)))
(let ((.def_82 (and .s.2.next .def_48)))
(let ((.def_83 (and .def_41 .def_82)))
(let ((.def_95 (and .def_39 .def_83)))
(let ((.def_298 (and .def_95 .def_297)))
(let ((.def_299 (and .def_37 .def_298)))
(let ((.def_300 (and .def_31 .def_299)))
(let ((.def_301 (and .def_28 .def_300)))
(let ((.def_72 (and .s.1 .s.0)))
(let ((.def_73 (and .def_14 .def_72)))
(let ((.def_74 (and .def_17 .def_73)))
(let ((.def_295 (and .def_20 .def_74)))
(let ((.def_296 (not .def_295)))
(let ((.def_302 (or .def_296 .def_301)))
(let ((.def_335 (and .def_302 .def_334)))
(let ((.def_289 (and .s.4.next .def_288)))
(let ((.def_290 (and .def_37 .def_289)))
(let ((.def_291 (and .def_34 .def_290)))
(let ((.def_292 (and .def_31 .def_291)))
(let ((.def_293 (and .def_28 .def_292)))
(let ((.def_275 (<= main.n main.j)))
(let ((.def_59 (and .s.2 .def_58)))
(let ((.def_60 (and .def_17 .def_59)))
(let ((.def_274 (and .def_20 .def_60)))
(let ((.def_286 (and .def_274 .def_275)))
(let ((.def_287 (not .def_286)))
(let ((.def_294 (or .def_287 .def_293)))
(let ((.def_336 (and .def_294 .def_335)))
(let ((.def_280 (and .def_39 .def_279)))
(let ((.def_281 (and .def_37 .def_280)))
(let ((.def_282 (and .def_34 .def_281)))
(let ((.def_283 (and .def_31 .def_282)))
(let ((.def_284 (and .def_28 .def_283)))
(let ((.def_276 (not .def_275)))
(let ((.def_277 (and .def_274 .def_276)))
(let ((.def_278 (not .def_277)))
(let ((.def_285 (or .def_278 .def_284)))
(let ((.def_337 (and .def_285 .def_336)))
(let ((.def_268 (= main.k.next main.j)))
(let ((.def_139 (and .s.2.next .def_63)))
(let ((.def_140 (and .def_41 .def_139)))
(let ((.def_141 (and .def_39 .def_140)))
(let ((.def_269 (and .def_141 .def_268)))
(let ((.def_270 (and .def_37 .def_269)))
(let ((.def_271 (and .def_34 .def_270)))
(let ((.def_272 (and .def_28 .def_271)))
(let ((.def_22 (and .def_12 .s.2)))
(let ((.def_23 (and .def_17 .def_22)))
(let ((.def_266 (and .def_20 .def_23)))
(let ((.def_267 (not .def_266)))
(let ((.def_273 (or .def_267 .def_272)))
(let ((.def_338 (and .def_273 .def_337)))
(let ((.def_214 (and .def_43 .def_163)))
(let ((.def_259 (and .def_41 .def_214)))
(let ((.def_260 (and .s.4.next .def_259)))
(let ((.def_261 (and .def_37 .def_260)))
(let ((.def_262 (and .def_34 .def_261)))
(let ((.def_263 (and .def_31 .def_262)))
(let ((.def_264 (and .def_28 .def_263)))
(let ((.def_246 (<= main.n main.k)))
(let ((.def_135 (and .s.2 .def_90)))
(let ((.def_244 (and .def_17 .def_135)))
(let ((.def_245 (and .def_20 .def_244)))
(let ((.def_257 (and .def_245 .def_246)))
(let ((.def_258 (not .def_257)))
(let ((.def_265 (or .def_258 .def_264)))
(let ((.def_339 (and .def_265 .def_338)))
(let ((.def_127 (and .s.2.next .def_126)))
(let ((.def_250 (and .def_41 .def_127)))
(let ((.def_251 (and .def_39 .def_250)))
(let ((.def_252 (and .def_37 .def_251)))
(let ((.def_253 (and .def_34 .def_252)))
(let ((.def_254 (and .def_31 .def_253)))
(let ((.def_255 (and .def_28 .def_254)))
(let ((.def_247 (not .def_246)))
(let ((.def_248 (and .def_245 .def_247)))
(let ((.def_249 (not .def_248)))
(let ((.def_256 (or .def_249 .def_255)))
(let ((.def_340 (and .def_256 .def_339)))
(let ((.def_230 (= .inputVar.0 0)))
(let ((.def_240 (not .def_230)))
(let ((.def_122 (and .s.2 .def_72)))
(let ((.def_226 (and .def_17 .def_122)))
(let ((.def_227 (and .def_20 .def_226)))
(let ((.def_241 (and .def_227 .def_240)))
(let ((.def_242 (not .def_241)))
(let ((.def_165 (and .s.3.next .def_164)))
(let ((.def_166 (and .def_39 .def_165)))
(let ((.def_167 (and .def_37 .def_166)))
(let ((.def_168 (and .def_34 .def_167)))
(let ((.def_169 (and .def_31 .def_168)))
(let ((.def_170 (and .def_28 .def_169)))
(let ((.def_243 (or .def_170 .def_242)))
(let ((.def_341 (and .def_243 .def_340)))
(let ((.def_233 (and .s.3.next .def_49)))
(let ((.def_234 (and .def_39 .def_233)))
(let ((.def_235 (and .def_37 .def_234)))
(let ((.def_236 (and .def_34 .def_235)))
(let ((.def_237 (and .def_31 .def_236)))
(let ((.def_238 (and .def_28 .def_237)))
(let ((.def_231 (and .def_227 .def_230)))
(let ((.def_232 (not .def_231)))
(let ((.def_239 (or .def_232 .def_238)))
(let ((.def_342 (and .def_239 .def_341)))
(let ((.def_211 (<= main.j main.k)))
(let ((.def_222 (not .def_211)))
(let ((.def_209 (and .s.3 .def_112)))
(let ((.def_210 (and .def_20 .def_209)))
(let ((.def_223 (and .def_210 .def_222)))
(let ((.def_224 (not .def_223)))
(let ((.def_116 (and .s.4.next .def_50)))
(let ((.def_117 (and .def_37 .def_116)))
(let ((.def_118 (and .def_34 .def_117)))
(let ((.def_119 (and .def_31 .def_118)))
(let ((.def_120 (and .def_28 .def_119)))
(let ((.def_225 (or .def_120 .def_224)))
(let ((.def_343 (and .def_225 .def_342)))
(let ((.def_215 (and .s.3.next .def_214)))
(let ((.def_216 (and .def_39 .def_215)))
(let ((.def_217 (and .def_37 .def_216)))
(let ((.def_218 (and .def_34 .def_217)))
(let ((.def_219 (and .def_31 .def_218)))
(let ((.def_220 (and .def_28 .def_219)))
(let ((.def_212 (and .def_210 .def_211)))
(let ((.def_213 (not .def_212)))
(let ((.def_221 (or .def_213 .def_220)))
(let ((.def_344 (and .def_221 .def_343)))
(let ((.def_202 (and .s.3.next .def_64)))
(let ((.def_203 (and .def_39 .def_202)))
(let ((.def_204 (and .def_37 .def_203)))
(let ((.def_205 (and .def_34 .def_204)))
(let ((.def_206 (and .def_31 .def_205)))
(let ((.def_207 (and .def_28 .def_206)))
(let ((.def_199 (and .def_15 .s.3)))
(let ((.def_200 (and .def_20 .def_199)))
(let ((.def_201 (not .def_200)))
(let ((.def_208 (or .def_201 .def_207)))
(let ((.def_345 (and .def_208 .def_344)))
(let ((.def_192 (and .s.3.next .def_191)))
(let ((.def_193 (and .def_39 .def_192)))
(let ((.def_194 (and .def_37 .def_193)))
(let ((.def_195 (and .def_34 .def_194)))
(let ((.def_196 (and .def_31 .def_195)))
(let ((.def_197 (and .def_28 .def_196)))
(let ((.def_184 (<= main.i main.j)))
(let ((.def_182 (and .s.3 .def_91)))
(let ((.def_183 (and .def_20 .def_182)))
(let ((.def_189 (and .def_183 .def_184)))
(let ((.def_190 (not .def_189)))
(let ((.def_198 (or .def_190 .def_197)))
(let ((.def_346 (and .def_198 .def_345)))
(let ((.def_185 (not .def_184)))
(let ((.def_186 (and .def_183 .def_185)))
(let ((.def_187 (not .def_186)))
(let ((.def_128 (and .s.3.next .def_127)))
(let ((.def_129 (and .def_39 .def_128)))
(let ((.def_130 (and .def_37 .def_129)))
(let ((.def_131 (and .def_34 .def_130)))
(let ((.def_132 (and .def_31 .def_131)))
(let ((.def_133 (and .def_28 .def_132)))
(let ((.def_188 (or .def_133 .def_187)))
(let ((.def_347 (and .def_188 .def_346)))
(let ((.def_175 (and .s.3.next .def_82)))
(let ((.def_176 (and .def_39 .def_175)))
(let ((.def_177 (and .def_37 .def_176)))
(let ((.def_178 (and .def_34 .def_177)))
(let ((.def_179 (and .def_31 .def_178)))
(let ((.def_180 (and .def_28 .def_179)))
(let ((.def_172 (and .s.3 .def_73)))
(let ((.def_173 (and .def_20 .def_172)))
(let ((.def_174 (not .def_173)))
(let ((.def_181 (or .def_174 .def_180)))
(let ((.def_348 (and .def_181 .def_347)))
(let ((.def_160 (and .s.3 .def_59)))
(let ((.def_161 (and .def_20 .def_160)))
(let ((.def_162 (not .def_161)))
(let ((.def_171 (or .def_162 .def_170)))
(let ((.def_349 (and .def_171 .def_348)))
(let ((.def_153 (and .s.3.next .def_139)))
(let ((.def_154 (and .def_39 .def_153)))
(let ((.def_150 (* (- 1) main.k.next)))
(let ((.def_151 (+ main.k .def_150)))
(let ((.def_152 (= .def_151 (- 1))))
(let ((.def_155 (and .def_152 .def_154)))
(let ((.def_156 (and .def_37 .def_155)))
(let ((.def_157 (and .def_34 .def_156)))
(let ((.def_158 (and .def_28 .def_157)))
(let ((.def_147 (and .s.3 .def_22)))
(let ((.def_148 (and .def_20 .def_147)))
(let ((.def_149 (not .def_148)))
(let ((.def_159 (or .def_149 .def_158)))
(let ((.def_350 (and .def_159 .def_349)))
(let ((.def_142 (and .def_37 .def_141)))
(let ((.def_143 (and .def_34 .def_142)))
(let ((.def_144 (and .def_31 .def_143)))
(let ((.def_145 (and .def_28 .def_144)))
(let ((.def_136 (and .s.3 .def_135)))
(let ((.def_137 (and .def_20 .def_136)))
(let ((.def_138 (not .def_137)))
(let ((.def_146 (or .def_138 .def_145)))
(let ((.def_351 (and .def_146 .def_350)))
(let ((.def_123 (and .s.3 .def_122)))
(let ((.def_124 (and .def_20 .def_123)))
(let ((.def_125 (not .def_124)))
(let ((.def_134 (or .def_125 .def_133)))
(let ((.def_352 (and .def_134 .def_351)))
(let ((.def_114 (and .s.4 .def_113)))
(let ((.def_115 (not .def_114)))
(let ((.def_121 (or .def_115 .def_120)))
(let ((.def_353 (and .def_121 .def_352)))
(let ((.def_106 (and .s.4.next .def_65)))
(let ((.def_103 (* (- 1) main.j.next)))
(let ((.def_104 (+ main.j .def_103)))
(let ((.def_105 (= .def_104 (- 1))))
(let ((.def_107 (and .def_105 .def_106)))
(let ((.def_108 (and .def_37 .def_107)))
(let ((.def_109 (and .def_31 .def_108)))
(let ((.def_110 (and .def_28 .def_109)))
(let ((.def_101 (and .def_18 .s.4)))
(let ((.def_102 (not .def_101)))
(let ((.def_111 (or .def_102 .def_110)))
(let ((.def_354 (and .def_111 .def_353)))
(let ((.def_96 (and .def_37 .def_95)))
(let ((.def_97 (and .def_34 .def_96)))
(let ((.def_98 (and .def_31 .def_97)))
(let ((.def_99 (and .def_28 .def_98)))
(let ((.def_93 (and .s.4 .def_92)))
(let ((.def_94 (not .def_93)))
(let ((.def_100 (or .def_94 .def_99)))
(let ((.def_355 (and .def_100 .def_354)))
(let ((.def_84 (and .s.4.next .def_83)))
(let ((.def_79 (* (- 1) main.i.next)))
(let ((.def_80 (+ main.i .def_79)))
(let ((.def_81 (= .def_80 (- 1))))
(let ((.def_85 (and .def_81 .def_84)))
(let ((.def_86 (and .def_34 .def_85)))
(let ((.def_87 (and .def_31 .def_86)))
(let ((.def_88 (and .def_28 .def_87)))
(let ((.def_75 (and .s.4 .def_74)))
(let ((.def_76 (not .def_75)))
(let ((.def_89 (or .def_76 .def_88)))
(let ((.def_356 (and .def_89 .def_355)))
(let ((.def_67 (and .def_37 .def_66)))
(let ((.def_68 (and .def_34 .def_67)))
(let ((.def_69 (and .def_31 .def_68)))
(let ((.def_70 (and .def_28 .def_69)))
(let ((.def_61 (and .s.4 .def_60)))
(let ((.def_62 (not .def_61)))
(let ((.def_71 (or .def_62 .def_70)))
(let ((.def_357 (and .def_71 .def_356)))
(let ((.def_24 (and .s.4 .def_23)))
(let ((.def_25 (not .def_24)))
(let ((.def_56 (or .def_25 .def_55)))
(let ((.def_358 (and .def_56 .def_357)))
.def_358))))))))))))))))))))))))))))))))))))))))))))))))))))))))))))))))))))))))))))))))))))))))))))))))))))))))))))))))))))))))))))))))))))))))))))))))))))))))))))))))))))))))))))))))))))))))))))))))))))))))))))))))))))))))))))))))))))))))))))))))))))))))))))))))))))))))))))))))))))))))))))))))))))))))))))))))))))))))))))))))))))))))) (state |.s.1.next| |.s.0.next| |.s.2.next| |.s.3.next| |.s.4.next| |main.n.next| |main.k.next| |main.j.next| |main.i.next|))))
(assert (forall ((|.s.2| Bool) (|.s.0| Bool) (|.s.1| Bool) (|.s.0.next| Bool) (|.s.1.next| Bool) (|.s.2.next| Bool) (|.s.3.next| Bool) (|.s.4.next| Bool) (|main.i.next| Int) (|main.i| Int) (|main.j.next| Int) (|main.j| Int) (|main.k.next| Int) (|main.k| Int) (|main.n.next| Int) (|main.n| Int) (|.inputVar.0| Int) (|.s.4| Bool) (|.s.3| Bool)) (=> (state |.s.1| |.s.0| |.s.2| |.s.3| |.s.4| |main.n| |main.k| |main.j| |main.i|) (let ((.def_72 (and .s.1 .s.0)))
(let ((.def_122 (and .s.2 .def_72)))
(let ((.def_123 (and .s.3 .def_122)))
(let ((.def_20 (not .s.4)))
(let ((.def_124 (and .def_20 .def_123)))
(let ((.def_125 (not .def_124)))
(let ((.def_57 (not .s.0)))
(let ((.def_10 (not .s.1)))
(let ((.def_58 (and .def_10 .def_57)))
(let ((.def_14 (not .s.2)))
(let ((.def_112 (and .def_14 .def_58)))
(let ((.def_17 (not .s.3)))
(let ((.def_113 (and .def_17 .def_112)))
(let ((.def_114 (and .s.4 .def_113)))
(let ((.def_115 (not .def_114)))
(let ((.def_359 (and .def_115 .def_125)))
.def_359)))))))))))))))))))
(check-sat)
